[-1, 0, 965, 762, 530, 0, 0, 0, 
869, -1, 0, 0, 0, 849, 0, 962, 
0, 0, -1, 786, 354, 818, 291, 792, 
649, 428, 0, -1, 982, 0, 820, 0, 
336, 0, 0, 971, -1, 0, 695, 0, 
41, 537, 0, 0, 406, -1, 0, 364, 
0, 0, 226, 536, 0, 128, -1, 0, 
0, 0, 528, 0, 0, 0, 0, -1]